NAME : Unnamed.742.tour
COMMENT : Length = 742
COMMENT : Found by LKH [Keld Helsgaun] Wed Oct 22 13:41:32 2014
TYPE : TOUR
DIMENSION : 83
TOUR_SECTION
1
6
83
9
7
12
3
8
10
11
14
70
69
62
64
57
56
66
60
25
65
55
63
59
67
58
71
72
81
79
77
80
82
74
76
78
73
29
33
22
43
68
61
38
75
34
47
39
19
28
44
21
24
46
23
15
37
36
16
42
27
48
41
52
17
49
35
45
18
54
20
53
51
32
31
50
30
26
4
5
2
13
40
-1
EOF
